NAME : RWPToy-3-2
COMMENT : Toy. 5 postmen. Max route 31304=21599.76s=6h.
TYPE : TSP
DIMENSION : 4
VEHICLES 5
SCALE : 100000
DISTANCE : 21599.760000
EDGE_WEIGHT_TYPE : EXPLICIT
EDGE_WEIGHT_FORMAT : UPPER_ROW
EDGE_WEIGHT_SECTION
628.358563
814.882366
1232.037702

274.827366
1843.024985

1992.146817

DEPOT_SECTION
1
-1
EOF
